(set-logic QF_S)
(declare-fun var0 () String)
(declare-fun var1 () Int)
(declare-fun var2 () String)
(declare-fun var3 () String)
(declare-fun var4 () Int)
(declare-fun var5 () String)
(assert (> (str.indexof "" var0 var1) (str.indexof var2 var3 var4)))
(assert (str.contains var5 var0))
(assert (str.prefixof var5 var5))
(assert (> (str.len var5) (str.indexof var2 var2 152)))
(check-sat)